<?xml version = "1.0" standalone="yes"?>
<!-- This file has been generated by DOcplex version 2.23.222  -->
<CPLEXSolution version="1.0">
 <header
   problemName="CVRP"
   objectiveValue="23063.4"
  />
 <variables>
  <variable name="x_0_1" index="0" value="1.00000"/>
  <variable name="x_0_2" index="1" value="1.00000"/>
  <variable name="x_0_3" index="2" value="1.00000"/>
  <variable name="x_0_7" index="6" value="1.00000"/>
  <variable name="x_0_8" index="7" value="1.00000"/>
  <variable name="x_0_10" index="9" value="1.00000"/>
  <variable name="x_0_11" index="10" value="1.00000"/>
  <variable name="x_0_12" index="11" value="1.00000"/>
  <variable name="x_0_14" index="13" value="1.00000"/>
  <variable name="x_0_15" index="14" value="1.00000"/>
  <variable name="x_0_17" index="16" value="1.00000"/>
  <variable name="x_0_18" index="17" value="1.00000"/>
  <variable name="x_0_19" index="18" value="1.00000"/>
  <variable name="x_0_21" index="20" value="1.00000"/>
  <variable name="x_0_22" index="21" value="1.00000"/>
  <variable name="x_0_24" index="23" value="1.00000"/>
  <variable name="x_0_26" index="25" value="1.00000"/>
  <variable name="x_1_0" index="27" value="1.00000"/>
  <variable name="x_2_0" index="54" value="1.00000"/>
  <variable name="x_3_0" index="81" value="1.00000"/>
  <variable name="x_4_0" index="108" value="1.00000"/>
  <variable name="x_5_0" index="135" value="1.00000"/>
  <variable name="x_6_0" index="162" value="1.00000"/>
  <variable name="x_7_0" index="189" value="1.00000"/>
  <variable name="x_8_25" index="240" value="1.00000"/>
  <variable name="x_9_0" index="243" value="1.00000"/>
  <variable name="x_10_5" index="275" value="1.00000"/>
  <variable name="x_11_27" index="323" value="1.00000"/>
  <variable name="x_12_4" index="328" value="1.00000"/>
  <variable name="x_13_0" index="351" value="1.00000"/>
  <variable name="x_14_23" index="400" value="1.00000"/>
  <variable name="x_15_13" index="418" value="1.00000"/>
  <variable name="x_16_0" index="432" value="1.00000"/>
  <variable name="x_17_0" index="459" value="1.00000"/>
  <variable name="x_18_0" index="486" value="1.00000"/>
  <variable name="x_19_20" index="532" value="1.00000"/>
  <variable name="x_20_6" index="546" value="1.00000"/>
  <variable name="x_21_0" index="567" value="1.00000"/>
  <variable name="x_22_0" index="594" value="1.00000"/>
  <variable name="x_23_0" index="621" value="1.00000"/>
  <variable name="x_24_9" index="657" value="1.00000"/>
  <variable name="x_25_0" index="675" value="1.00000"/>
  <variable name="x_26_16" index="718" value="1.00000"/>
  <variable name="x_27_0" index="729" value="1.00000"/>
  <variable name="u_1" index="756" value="43.00000"/>
  <variable name="u_2" index="757" value="43.00000"/>
  <variable name="u_3" index="758" value="43.00000"/>
  <variable name="u_4" index="759" value="36.00000"/>
  <variable name="u_5" index="760" value="38.00000"/>
  <variable name="u_6" index="761" value="43.00000"/>
  <variable name="u_7" index="762" value="20.00000"/>
  <variable name="u_8" index="763" value="22.00000"/>
  <variable name="u_9" index="764" value="43.00000"/>
  <variable name="u_10" index="765" value="32.00000"/>
  <variable name="u_11" index="766" value="32.00000"/>
  <variable name="u_12" index="767" value="8.00000"/>
  <variable name="u_13" index="768" value="34.00000"/>
  <variable name="u_14" index="769" value="8.00000"/>
  <variable name="u_15" index="770" value="2.00000"/>
  <variable name="u_16" index="771" value="40.00000"/>
  <variable name="u_17" index="772" value="43.00000"/>
  <variable name="u_18" index="773" value="28.00000"/>
  <variable name="u_19" index="774" value="18.00000"/>
  <variable name="u_20" index="775" value="27.00000"/>
  <variable name="u_21" index="776" value="43.00000"/>
  <variable name="u_22" index="777" value="37.00000"/>
  <variable name="u_23" index="778" value="43.00000"/>
  <variable name="u_24" index="779" value="9.00000"/>
  <variable name="u_25" index="780" value="42.00000"/>
  <variable name="u_26" index="781" value="29.00000"/>
  <variable name="u_27" index="782" value="43.00000"/>
 </variables>
</CPLEXSolution>
